* ENCODING=ISO-8859-1
NAME          CPLEX
ROWS
 N  obj1    
 G  c1      
 G  c2      
 G  c3      
 G  c4      
 G  c5      
 G  c6      
 G  c7      
 G  c8      
 G  c9      
 G  c10     
 G  c11     
 G  c12     
 G  c13     
 G  c14     
 G  c15     
 G  c16     
 G  c17     
 G  c18     
 G  c19     
 G  c20     
 G  c21     
 G  c22     
 G  c23     
 G  c24     
 G  c25     
 G  c26     
 G  c27     
 G  c28     
 G  c29     
 G  c30     
 G  c31     
 G  c32     
 G  c33     
 G  c34     
 G  c35     
 G  c36     
 G  c37     
 G  c38     
 G  c39     
 G  c40     
 G  c41     
 G  c42     
 G  c43     
 G  c44     
 G  c45     
 G  c46     
 G  c47     
 G  c48     
 G  c49     
 G  c50     
COLUMNS
    MARK0000  'MARKER'                 'INTORG'
    x1        obj1                            1
    x1        c13                           785
    x1        c15                           972
    x1        c31                           461
    x1        c39                           259
    x1        c40                           824
    x1        c43                           584
    x1        c48                           378
    x2        obj1                            1
    x2        c2                            129
    x2        c3                            101
    x2        c8                            225
    x2        c15                           485
    x2        c23                           918
    x2        c29                           166
    x2        c43                           554
    x3        obj1                            1
    x3        c6                            366
    x3        c35                           240
    x3        c44                           177
    x4        obj1                            1
    x4        c19                           602
    x4        c20                           843
    x4        c24                           901
    x4        c47                           494
    x4        c49                           239
    x5        obj1                            1
    x5        c4                            578
    x5        c31                           180
    x5        c36                           583
    x5        c47                           511
    x6        obj1                            1
    x7        obj1                            1
    x7        c11                           107
    x7        c13                           227
    x7        c17                           274
    x8        obj1                            1
    x8        c2                            237
    x8        c12                           944
    x8        c24                           460
    x8        c27                           909
    x8        c47                           885
    x8        c48                           647
    x9        obj1                            1
    x9        c4                            222
    x9        c8                            299
    x9        c22                           472
    x9        c30                           573
    x9        c33                           437
    x9        c35                           837
    x9        c37                           585
    x10       obj1                            1
    x10       c3                            102
    x10       c17                           998
    x10       c20                           171
    x10       c22                           572
    x10       c33                           728
    x10       c34                           726
    x10       c49                           221
    x11       obj1                            1
    x11       c16                           285
    x11       c17                           185
    x11       c20                           900
    x11       c28                           415
    x11       c46                           595
    x12       obj1                            1
    x12       c2                            647
    x12       c39                           418
    x12       c45                           787
    x13       obj1                            1
    x13       c1                            407
    x13       c11                           354
    x13       c43                           585
    x13       c46                           468
    x14       obj1                            1
    x14       c5                            411
    x14       c8                            119
    x14       c23                          1000
    x14       c26                           571
    x14       c35                           913
    x14       c40                           626
    x15       obj1                            1
    x15       c8                            221
    x15       c16                           780
    x15       c21                           963
    x15       c22                           792
    x15       c23                           706
    x15       c38                           924
    x15       c50                           559
    x16       obj1                            1
    x16       c10                           172
    x16       c14                           511
    x16       c16                           778
    x16       c19                           908
    x16       c46                           877
    x16       c48                           964
    x17       obj1                            1
    x17       c9                            188
    x17       c20                           328
    x17       c30                           176
    x17       c35                           103
    x17       c50                           349
    x18       obj1                            1
    x18       c28                           507
    x18       c30                           920
    x18       c31                           800
    x18       c38                           163
    x18       c39                           532
    x19       obj1                            1
    x19       c4                            951
    x19       c12                           958
    x19       c13                           781
    x19       c28                           476
    x19       c30                           952
    x19       c33                           871
    x19       c36                           376
    x20       obj1                            1
    x20       c4                            204
    x20       c16                           726
    x20       c19                           137
    x20       c33                           694
    x20       c38                           347
    x21       obj1                            1
    x21       c7                            657
    x21       c15                           229
    x21       c27                           800
    x21       c39                           337
    x21       c44                           952
    x22       obj1                            1
    x22       c20                           916
    x22       c50                           861
    x23       obj1                            1
    x23       c1                            131
    x23       c10                           450
    x23       c15                           464
    x23       c37                           624
    x23       c41                           920
    x23       c42                           998
    x24       obj1                            1
    x24       c30                           282
    x24       c37                           655
    x24       c41                           490
    x24       c43                           120
    x25       obj1                            1
    x25       c6                            983
    x25       c23                           280
    x25       c25                           312
    x25       c33                           757
    x25       c37                           147
    x26       obj1                            1
    x26       c22                           660
    x27       obj1                            1
    x27       c11                           777
    x27       c21                           657
    x27       c23                           842
    x28       obj1                            1
    x28       c5                            796
    x28       c11                           462
    x28       c16                           828
    x28       c28                           308
    x28       c42                           479
    x28       c44                           708
    x29       obj1                            1
    x29       c3                            544
    x29       c6                            519
    x29       c10                           732
    x29       c20                           177
    x29       c25                           805
    x29       c36                           131
    x29       c48                           447
    x30       obj1                            1
    x30       c1                            289
    x30       c27                           856
    x30       c29                           138
    x30       c39                           937
    x31       obj1                            1
    x31       c4                            159
    x31       c17                           997
    x31       c21                           673
    x32       obj1                            1
    x32       c3                            479
    x32       c13                           458
    x32       c30                           129
    x32       c32                           850
    x32       c34                           110
    x32       c35                           388
    x32       c43                           790
    x33       obj1                            1
    x33       c17                           153
    x33       c18                           337
    x33       c39                           772
    x33       c40                           297
    x33       c45                           474
    x34       obj1                            1
    x34       c4                            544
    x34       c6                            599
    x34       c22                           402
    x34       c26                           848
    x34       c32                           429
    x34       c44                           760
    x35       obj1                            1
    x35       c6                            624
    x35       c14                           142
    x35       c21                           750
    x35       c29                           987
    x35       c32                           891
    x35       c33                           791
    x35       c36                           585
    x35       c50                           259
    x36       obj1                            1
    x36       c8                            852
    x36       c13                           310
    x36       c19                           877
    x36       c25                           623
    x36       c37                           604
    x36       c46                           647
    x37       obj1                            1
    x37       c1                            737
    x37       c7                            799
    x37       c14                           442
    x37       c25                           925
    x37       c26                           489
    x38       obj1                            1
    x38       c10                           764
    x38       c12                           878
    x38       c27                           586
    x38       c31                           466
    x38       c45                           351
    x39       obj1                            1
    x39       c1                            479
    x39       c27                           730
    x39       c29                           801
    x39       c39                           892
    x39       c41                           373
    x39       c42                           561
    x39       c46                           348
    x40       obj1                            1
    x40       c3                            620
    x40       c5                            384
    x40       c7                            752
    x40       c14                           610
    x40       c15                           702
    x40       c18                           267
    x40       c28                           911
    x40       c40                           862
    x41       obj1                            1
    x41       c8                            408
    x41       c19                           324
    x41       c24                           203
    x41       c32                           428
    x41       c36                           654
    x42       obj1                            1
    x42       c18                           874
    x42       c24                           321
    x42       c42                           139
    x42       c43                           819
    x42       c44                           675
    x42       c49                           408
    x43       obj1                            1
    x43       c22                           237
    x43       c35                           466
    x43       c37                           113
    x43       c40                           824
    x43       c43                           328
    x44       obj1                            1
    x44       c16                           975
    x44       c18                           611
    x44       c44                           689
    x44       c45                           715
    x45       obj1                            1
    x45       c3                            352
    x45       c9                            389
    x45       c10                           796
    x45       c28                           361
    x45       c33                           377
    x45       c49                           181
    x46       obj1                            1
    x46       c9                            734
    x46       c19                           113
    x46       c20                           726
    x46       c23                           360
    x46       c36                           594
    x46       c48                           599
    x47       obj1                            1
    x47       c7                            100
    x47       c22                           130
    x47       c45                           425
    x48       obj1                            1
    x48       c35                           667
    x49       obj1                            1
    x49       c1                            101
    x49       c6                            353
    x49       c9                            978
    x49       c11                           237
    x49       c29                           545
    x49       c34                           829
    x50       obj1                            1
    x50       c7                            604
    x50       c46                           955
    MARK0001  'MARKER'                 'INTEND'
RHS
    rhs       c1                           1072
    rhs       c2                            507
    rhs       c3                           1099
    rhs       c4                           1329
    rhs       c5                            796
    rhs       c6                           1722
    rhs       c7                           1456
    rhs       c8                           1062
    rhs       c9                           1145
    rhs       c10                          1457
    rhs       c11                           969
    rhs       c12                          1390
    rhs       c13                          1281
    rhs       c14                           853
    rhs       c15                          1426
    rhs       c16                          2186
    rhs       c17                          1304
    rhs       c18                          1045
    rhs       c19                          1481
    rhs       c20                          2031
    rhs       c21                          1522
    rhs       c22                          1633
    rhs       c23                          2053
    rhs       c24                           943
    rhs       c25                          1333
    rhs       c26                           954
    rhs       c27                          1941
    rhs       c28                          1489
    rhs       c29                          1319
    rhs       c30                          1516
    rhs       c31                           954
    rhs       c32                          1299
    rhs       c33                          2328
    rhs       c34                           833
    rhs       c35                          1807
    rhs       c36                          1462
    rhs       c37                          1364
    rhs       c38                           717
    rhs       c39                          2074
    rhs       c40                          1717
    rhs       c41                           892
    rhs       c42                          1089
    rhs       c43                          1890
    rhs       c44                          1981
    rhs       c45                          1376
    rhs       c46                          1945
    rhs       c47                           945
    rhs       c48                          1518
    rhs       c49                           525
    rhs       c50                          1014
BOUNDS
 LI bnd       x1        0
 LI bnd       x2        0
 LI bnd       x3        0
 LI bnd       x4        0
 LI bnd       x5        0
 LI bnd       x6        0
 LI bnd       x7        0
 LI bnd       x8        0
 LI bnd       x9        0
 LI bnd       x10       0
 LI bnd       x11       0
 LI bnd       x12       0
 LI bnd       x13       0
 LI bnd       x14       0
 LI bnd       x15       0
 LI bnd       x16       0
 LI bnd       x17       0
 LI bnd       x18       0
 LI bnd       x19       0
 LI bnd       x20       0
 LI bnd       x21       0
 LI bnd       x22       0
 LI bnd       x23       0
 LI bnd       x24       0
 LI bnd       x25       0
 LI bnd       x26       0
 LI bnd       x27       0
 LI bnd       x28       0
 LI bnd       x29       0
 LI bnd       x30       0
 LI bnd       x31       0
 LI bnd       x32       0
 LI bnd       x33       0
 LI bnd       x34       0
 LI bnd       x35       0
 LI bnd       x36       0
 LI bnd       x37       0
 LI bnd       x38       0
 LI bnd       x39       0
 LI bnd       x40       0
 LI bnd       x41       0
 LI bnd       x42       0
 LI bnd       x43       0
 LI bnd       x44       0
 LI bnd       x45       0
 LI bnd       x46       0
 LI bnd       x47       0
 LI bnd       x48       0
 LI bnd       x49       0
 LI bnd       x50       0
ENDATA
